0000000000000000
0011111111000000
0111111111100000
0000000011110000
0000000001110000
0000000001110000
0000000001110000
0000000001110000
0000000001110000
0000000001110000
0000000001110000
0000000011100000
0011111111111000
0011111111111000
0000000000000000
0000000000000000
